7936
40, 37, 38, 5, 6, 4, 25, 12, 51, 11, 52, 14, 13, 27, 28, 26, 47, 29, 16, 50, 20, 23, 30, 2, 7, 42, 21, 17, 3, 18, 31, 22, 1, 44, 46, 48, 24, 15, 43, 33, 10, 9, 8, 41, 19, 45, 32, 49, 36, 35, 34, 39
